; benchmark generated from python API
(set-info :status unknown)
(declare-fun x_days () Int)
(declare-fun y_days () Int)
(assert
 (>= x_days (- 36584)))
(assert
 (<= x_days 36829))
(assert
 (>= y_days (- 36584)))
(assert
 (<= y_days 36829))
(assert
 (>= x_days 8492))
(assert
 (let ((?x4614 (+ x_days 730179)))
 (let ((?x3740 (mod ?x4614 146097)))
 (let ((?x4680 (div ?x3740 36524)))
 (let ((?x1874 (ite (<= 4 ?x4680) 3 ?x4680)))
 (let ((?x1191 (- ?x3740 (* ?x1874 36524))))
 (let ((?x519 (mod ?x1191 1461)))
 (let ((?x3315 (div ?x519 365)))
 (let ((?x541 (ite (<= 4 ?x3315) 3 ?x3315)))
 (let ((?x260 (+ (+ (* (div ?x4614 146097) 400) (* ?x1874 100)) (* (div ?x1191 1461) 4))))
 (let ((?x1914 (+ (+ ?x260 ?x541) 1)))
 (let (($x507 (or (and (= (mod ?x1914 4) 0) (and (distinct (mod ?x1914 100) 0) true)) (= (mod ?x1914 400) 0))))
 (let ((?x433 (- ?x519 (* ?x541 365))))
 (let ((?x2172 (ite $x507 31 31)))
 (let (($x2828 (>= ?x433 ?x2172)))
 (let ((?x2899 (ite $x2828 (+ (- ?x433 ?x2172) 1) (+ (- ?x433 (ite $x507 0 0)) 1))))
 (let ((?x477 (ite $x507 60 59)))
 (let (($x2733 (>= ?x433 ?x477)))
 (let ((?x1743 (ite $x507 91 90)))
 (let (($x2804 (>= ?x433 ?x1743)))
 (let ((?x2780 (ite $x2804 (+ (- ?x433 ?x1743) 1) (ite $x2733 (+ (- ?x433 ?x477) 1) ?x2899))))
 (let ((?x1942 (ite $x507 121 120)))
 (let (($x2814 (>= ?x433 ?x1942)))
 (let ((?x1097 (ite $x507 152 151)))
 (let (($x2439 (>= ?x433 ?x1097)))
 (let ((?x2506 (ite $x2439 (+ (- ?x433 ?x1097) 1) (ite $x2814 (+ (- ?x433 ?x1942) 1) ?x2780))))
 (let ((?x2148 (ite $x507 182 181)))
 (let (($x954 (>= ?x433 ?x2148)))
 (let ((?x1717 (ite $x507 213 212)))
 (let (($x2877 (>= ?x433 ?x1717)))
 (let ((?x2387 (ite $x2877 (+ (- ?x433 ?x1717) 1) (ite $x954 (+ (- ?x433 ?x2148) 1) ?x2506))))
 (let ((?x2815 (ite $x507 244 243)))
 (let (($x2314 (>= ?x433 ?x2815)))
 (let ((?x2136 (ite $x507 274 273)))
 (let (($x247 (>= ?x433 ?x2136)))
 (let ((?x1267 (ite $x247 (+ (- ?x433 ?x2136) 1) (ite $x2314 (+ (- ?x433 ?x2815) 1) ?x2387))))
 (let ((?x1255 (ite $x507 305 304)))
 (let (($x2549 (>= ?x433 ?x1255)))
 (let ((?x2111 (ite $x507 335 334)))
 (let (($x2500 (>= ?x433 ?x2111)))
 (let ((?x2831 (ite $x2500 (+ (- ?x433 ?x2111) 1) (ite $x2549 (+ (- ?x433 ?x1255) 1) ?x1267))))
 (let ((?x821 (+ (* 0 12) 1)))
 (let ((?x2350 (ite $x2814 5 (ite $x2804 4 (ite $x2733 3 (ite $x2828 2 1))))))
 (let ((?x2619 (ite $x2314 9 (ite $x2877 8 (ite $x954 7 (ite $x2439 6 ?x2350))))))
 (let ((?x2345 (- (+ (ite $x2500 12 (ite $x2549 11 (ite $x247 10 ?x2619))) ?x821) 1)))
 (let ((?x2427 (+ (mod ?x2345 12) 1)))
 (let ((?x1504 (ite (or (= ?x2427 4) (= ?x2427 6) (= ?x2427 9) (= ?x2427 11)) 30 31)))
 (let (($x2419 (and (= (mod (+ ?x1914 (+ 0 (div ?x2345 12))) 4) 0) (and (distinct (mod (+ ?x1914 (+ 0 (div ?x2345 12))) 100) 0) true))))
 (let (($x2743 (or $x2419 (= (mod (+ ?x1914 (+ 0 (div ?x2345 12))) 400) 0))))
 (let ((?x2861 (ite (= ?x2427 2) (ite $x2743 29 28) ?x1504)))
 (let ((?x2839 (ite (> 1 ?x2831) 1 (ite (> ?x2831 ?x2861) ?x2861 ?x2831))))
 (let ((?x1980 (ite (> 1 ?x2839) 1 (ite (> ?x2839 ?x2861) ?x2861 ?x2839))))
 (let ((?x784 (ite (= 2 ?x2427) (ite $x2743 31 31) (ite (= 1 ?x2427) (ite $x2743 0 0) 0))))
 (let ((?x1193 (ite (= 4 ?x2427) (ite $x2743 91 90) (ite (= 3 ?x2427) (ite $x2743 60 59) ?x784))))
 (let ((?x424 (ite (= 6 ?x2427) (ite $x2743 152 151) (ite (= 5 ?x2427) (ite $x2743 121 120) ?x1193))))
 (let ((?x2606 (ite (= 8 ?x2427) (ite $x2743 213 212) (ite (= 7 ?x2427) (ite $x2743 182 181) ?x424))))
 (let ((?x1285 (ite (= 10 ?x2427) (ite $x2743 274 273) (ite (= 9 ?x2427) (ite $x2743 244 243) ?x2606))))
 (let ((?x544 (ite (= 12 ?x2427) (ite $x2743 335 334) (ite (= 11 ?x2427) (ite $x2743 305 304) ?x1285))))
 (let ((?x2145 (+ (* 365 (- (+ ?x1914 (+ 0 (div ?x2345 12))) 1)) (div (- (+ ?x1914 (+ 0 (div ?x2345 12))) 1) 4))))
 (let ((?x1192 (+ (- ?x2145 (div (- (+ ?x1914 (+ 0 (div ?x2345 12))) 1) 100)) (div (- (+ ?x1914 (+ 0 (div ?x2345 12))) 1) 400))))
 (let ((?x2759 (+ (+ (- (+ (+ ?x1192 ?x544) (- ?x1980 1)) 730179) 0) 730179)))
 (let ((?x2316 (mod ?x2759 146097)))
 (let ((?x473 (div ?x2316 36524)))
 (let ((?x442 (ite (<= 4 ?x473) 3 ?x473)))
 (let ((?x1229 (- ?x2316 (* ?x442 36524))))
 (let ((?x2870 (mod ?x1229 1461)))
 (let ((?x2888 (div ?x2870 365)))
 (let ((?x1446 (ite (<= 4 ?x2888) 3 ?x2888)))
 (let ((?x2070 (+ (+ (* (div ?x2759 146097) 400) (* ?x442 100)) (* (div ?x1229 1461) 4))))
 (let ((?x1425 (+ (+ ?x2070 ?x1446) 1)))
 (let (($x1931 (or (and (= (mod ?x1425 4) 0) (and (distinct (mod ?x1425 100) 0) true)) (= (mod ?x1425 400) 0))))
 (let ((?x1946 (- ?x2870 (* ?x1446 365))))
 (let ((?x1962 (ite $x1931 31 31)))
 (let (($x1569 (>= ?x1946 ?x1962)))
 (let ((?x1126 (ite $x1569 (+ (- ?x1946 ?x1962) 1) (+ (- ?x1946 (ite $x1931 0 0)) 1))))
 (let ((?x1444 (ite $x1931 60 59)))
 (let (($x2486 (>= ?x1946 ?x1444)))
 (let ((?x2237 (ite $x1931 91 90)))
 (let (($x450 (>= ?x1946 ?x2237)))
 (let ((?x2349 (ite $x450 (+ (- ?x1946 ?x2237) 1) (ite $x2486 (+ (- ?x1946 ?x1444) 1) ?x1126))))
 (let ((?x2305 (ite $x1931 121 120)))
 (let (($x1773 (>= ?x1946 ?x2305)))
 (let ((?x2152 (ite $x1931 152 151)))
 (let (($x1128 (>= ?x1946 ?x2152)))
 (let ((?x2507 (ite $x1128 (+ (- ?x1946 ?x2152) 1) (ite $x1773 (+ (- ?x1946 ?x2305) 1) ?x2349))))
 (let ((?x1542 (ite $x1931 182 181)))
 (let (($x1721 (>= ?x1946 ?x1542)))
 (let ((?x1892 (ite $x1931 213 212)))
 (let (($x241 (>= ?x1946 ?x1892)))
 (let ((?x2555 (ite $x241 (+ (- ?x1946 ?x1892) 1) (ite $x1721 (+ (- ?x1946 ?x1542) 1) ?x2507))))
 (let ((?x1511 (ite $x1931 244 243)))
 (let (($x2824 (>= ?x1946 ?x1511)))
 (let ((?x1696 (ite $x1931 274 273)))
 (let (($x2818 (>= ?x1946 ?x1696)))
 (let ((?x2569 (ite $x2818 (+ (- ?x1946 ?x1696) 1) (ite $x2824 (+ (- ?x1946 ?x1511) 1) ?x2555))))
 (let ((?x2144 (ite $x1931 305 304)))
 (let (($x383 (>= ?x1946 ?x2144)))
 (let ((?x1755 (ite $x1931 335 334)))
 (let (($x2264 (>= ?x1946 ?x1755)))
 (let ((?x2519 (ite $x2264 (+ (- ?x1946 ?x1755) 1) (ite $x383 (+ (- ?x1946 ?x2144) 1) ?x2569))))
 (let (($x1067 (= 0 0)))
 (let (($x2158 (= (mod (ite $x1067 (+ ?x1914 (+ 0 (div ?x2345 12))) ?x1425) 400) 0)))
 (let (($x2503 (and (distinct (mod (ite $x1067 (+ ?x1914 (+ 0 (div ?x2345 12))) ?x1425) 100) 0) true)))
 (let (($x2283 (= (mod (ite $x1067 (+ ?x1914 (+ 0 (div ?x2345 12))) ?x1425) 4) 0)))
 (let (($x2143 (or (and $x2283 $x2503) $x2158)))
 (let ((?x1411 (ite $x1773 5 (ite $x450 4 (ite $x2486 3 (ite $x1569 2 1))))))
 (let ((?x2817 (ite $x2824 9 (ite $x241 8 (ite $x1721 7 (ite $x1128 6 ?x1411))))))
 (let ((?x2405 (ite $x1067 ?x2427 (ite $x2264 12 (ite $x383 11 (ite $x2818 10 ?x2817))))))
 (let ((?x2536 (ite (= 2 ?x2405) (ite $x2143 31 31) (ite (= 1 ?x2405) (ite $x2143 0 0) 0))))
 (let ((?x2301 (ite (= 4 ?x2405) (ite $x2143 91 90) (ite (= 3 ?x2405) (ite $x2143 60 59) ?x2536))))
 (let ((?x2339 (ite (= 6 ?x2405) (ite $x2143 152 151) (ite (= 5 ?x2405) (ite $x2143 121 120) ?x2301))))
 (let ((?x2820 (ite (= 8 ?x2405) (ite $x2143 213 212) (ite (= 7 ?x2405) (ite $x2143 182 181) ?x2339))))
 (let ((?x2265 (ite (= 10 ?x2405) (ite $x2143 274 273) (ite (= 9 ?x2405) (ite $x2143 244 243) ?x2820))))
 (let ((?x2909 (ite (= 12 ?x2405) (ite $x2143 335 334) (ite (= 11 ?x2405) (ite $x2143 305 304) ?x2265))))
 (let ((?x2844 (+ ?x1914 (+ 0 (div ?x2345 12)))))
 (let ((?x2404 (ite $x1067 ?x2844 ?x1425)))
 (let ((?x2891 (- ?x2404 1)))
 (let ((?x2423 (+ (- (+ (* 365 ?x2891) (div ?x2891 4)) (div ?x2891 100)) (div ?x2891 400))))
 (let ((?x2833 (+ (- (+ (+ ?x2423 ?x2909) (- (ite $x1067 ?x1980 ?x2519) 1)) 730179) 15)))
 (= ?x2833 y_days))))))))))))))))))))))))))))))))))))))))))))))))))))))))))))))))))))))))))))))))))))))))))))))))))))))))))))))))))))))))
(assert
 (>= y_days 8492))
(assert
 (= x_days 35094))
(assert
 (= y_days 35139))
(check-sat)
